% Formato de entrada de datos para el problema Planta de Energias
% N: Central Núclear
% H: Central Hidroeléctrica
% T: Central Térmica

% Parametros
% Número de Dias para producción de energia
n=4;

% Número de clientes
s=2;  

% Capacidad de producción diaria en MW
CP=[1000, 300, 500];

% Costo de producción de 1 MW para cada central
CC=[1, 1, 1];

% Demanda diaria para s cliente [MW] hasta n dias
% Filas -> Clientes
% Columnas -> Dias
d=[| 1000, 800, 1000, 900
   | 800, 150, 300, 250 |];

